1576703
13,43,52,36,61,38,50,34,67,7,14,57,8,16,26,44,1,47,64,19,3,46,12,53,18,48,22,59,5,63,10,65,25,54,33,45,42,6,66,37,40,29,24,28,4,39,55,31,41,11,0,23,60,2,20,62,15,58,35,49,27,30,21,51,32,56,17,9
